(set-logic QF_S)
(declare-fun var_0xINPUT_116836 () String)
(assert (and (= (len var_0xINPUT_116836) 0) (= (len var_0xINPUT_116836) 0) (not (= var_0xINPUT_116836 "OT0EWBYwEr"))))
(check-sat var_0xINPUT_116836)